NAME : ClusterId_78 
COMMENT : (Gillet and Johnson) 
TYPE : CVRP 
DIMENSION : 13 
EDGE_WEIGHT_TYPE : EUC_2D 
CAPACITY : 140 
NODE_COORD_SECTION 
78 55 55 
54 67 41 
59 70 64 
19 62 48 
14 62 57 
8 55 45 
35 55 50 
66 57 72 
53 55 57 
11 55 65 
7 50 50 
65 50 70 
38 47 66 
DEMAND_SECTION 
78 3270
54 16
59 24
19 15
14 31
8 16
35 10
66 37
53 22
11 37
7 15
65 9
38 24
DEPOT_SECTION 
78
 -1
EOF